
Log started (V11.0.0) Wed May 14 14:43:34 2008

Tried aggregator 1 time.
Reduced MIP has 130 rows, 3001 columns, and 6030 nonzeros.
Presolve time =    0.03 sec.
Clique table members: 100.
MIP emphasis: balance optimality and feasibility.
MIP search method: dynamic search.
Parallel mode: none, using 1 thread.
Root relaxation solution time =    0.11 sec.

        Nodes                                         Cuts/
   Node  Left     Objective  IInf  Best Integer     Best Node    ItCnt     Gap

*     0+    0                        11052.0000      334.5056      361   96.97%
*     0+    0                          405.0000      334.5056      361   17.41%
      0     0      335.6012    56      405.0000      Fract: 6      399   17.14%
*     0+    0                          402.0000      335.6012      399   16.52%
      0     0      355.5487    67      402.0000      Cuts: 30     1021   11.56%
      0     0      356.2483    74      402.0000      Cuts: 24     1126   11.38%
      0     0      357.8437    83      402.0000      Cuts: 26     1186   10.98%
      0     0      357.8442    92      402.0000      Cuts: 20     1219   10.98%
      0     0      357.8456    89      402.0000      Cuts: 15     1266   10.98%
*     0+    0                          401.0000      357.8456     1266   10.76%
*     0+    0                          400.0000      357.8456     1266   10.54%
      0     2      357.8456    89      400.0000      357.8456     1266   10.54%
    100    88      358.0758    85      400.0000      357.8666    11225   10.53%
    200   162      359.0000    48      400.0000      357.8666    19544   10.53%
    300   224      359.0000    43      400.0000      357.8666    29959   10.53%
    400   282      359.7354    59      400.0000      357.8666    40068   10.53%

Cover cuts applied:  21
Mixed integer rounding cuts applied:  29

Solution pool: 5 solutions saved.

MIP - Integer optimal solution:  Objective = 4.0000000000e+002
Solution time =   15.45 sec.  Iterations = 47412  Nodes = 491 (344)


Incumbent solution
Variable Name           Solution Value
Cmax                        400.000000
X_1_26                        1.000000
X_2_16                        1.000000
X_3_4                         1.000000
X_4_10                        1.000000
X_5_18                        1.000000
X_6_12                        1.000000
X_7_26                        1.000000
X_8_24                        1.000000
X_9_8                         1.000000
X_10_3                        1.000000
X_11_17                       1.000000
X_12_3                        1.000000
X_13_30                       1.000000
X_14_14                       1.000000
X_15_15                       1.000000
X_16_21                       1.000000
X_17_4                        1.000000
X_18_20                       1.000000
X_19_5                        1.000000
X_20_11                       1.000000
X_21_15                       1.000000
X_22_9                        1.000000
X_23_15                       1.000000
X_24_29                       1.000000
X_25_2                        1.000000
X_26_9                        1.000000
X_27_23                       1.000000
X_28_24                       1.000000
X_29_19                       1.000000
X_30_2                        1.000000
X_31_1                        1.000000
X_32_13                       1.000000
X_33_10                       1.000000
X_34_30                       1.000000
X_35_21                       1.000000
X_36_21                       1.000000
X_37_7                        1.000000
X_38_20                       1.000000
X_39_17                       1.000000
X_40_17                       1.000000
X_41_13                       1.000000
X_42_2                        1.000000
X_43_16                       1.000000
X_44_27                       1.000000
X_45_13                       1.000000
X_46_6                        1.000000
X_47_7                        1.000000
X_48_17                       1.000000
X_49_27                       1.000000
X_50_8                        1.000000
X_51_18                       1.000000
X_52_3                        1.000000
X_53_9                        1.000000
X_54_10                       1.000000
X_55_6                        1.000000
X_56_30                       1.000000
X_57_7                        1.000000
X_58_11                       1.000000
X_59_8                        1.000000
X_60_29                       1.000000
X_61_20                       1.000000
X_62_14                       1.000000
X_63_1                        1.000000
X_64_5                        1.000000
X_65_22                       1.000000
X_66_24                       1.000000
X_67_4                        1.000000
X_68_25                       1.000000
X_69_12                       1.000000
X_70_14                       1.000000
X_71_23                       1.000000
X_72_22                       1.000000
X_73_1                        1.000000
X_74_15                       1.000000
X_75_19                       1.000000
X_76_5                        1.000000
X_77_28                       1.000000
X_78_25                       1.000000
X_79_28                       1.000000
X_80_12                       1.000000
X_81_23                       1.000000
X_82_28                       1.000000
X_83_22                       1.000000
X_84_8                        1.000000
X_85_21                       1.000000
X_86_9                        1.000000
X_87_19                       1.000000
X_88_18                       1.000000
X_89_16                       1.000000
X_90_10                       1.000000
X_91_25                       1.000000
X_92_29                       1.000000
X_93_1                        1.000000
X_94_6                        1.000000
X_95_28                       1.000000
X_96_14                       1.000000
X_97_27                       1.000000
X_98_11                       1.000000
X_99_26                       1.000000
X_100_12                      1.000000
All other variables in the range 1-3001 are 0.
